StudentsNr = 15;
InstructorsNr = 10;
DaysNr = 2;
SlotsPerDay = 10;
AvailabilitySlotsLenght = 2;
RoomNr = 2;
ProgrammNr = 2;
DegreeNr = 1;
RolesNr = 2;
CoursesNr = 3;
InstructorsProgramm = [{1}, {1, 2}, {1}, {2}, {2}, {1}, {1}, {1}, {2}, {2}];
InstructorRolesPerProgramm = [|{7}, {2, 3, 7}|{4, 9, 10}, {2, 5}|];
InstructorsAvailability = [|1, 1, 1, 1, 1, 1, 1, 1, 0, 1, |1, 1, 0, 0, 0, 1, 1, 1, 1, 1, |1, 0, 1, 1, 1, 1, 1, 0, 0, 0, |1, 1, 1, 1, 1, 1, 1, 0, 1, 1, |0, 1, 0, 1, 1, 0, 1, 1, 0, 1, |0, 1, 0, 1, 0, 0, 0, 1, 1, 0, |0, 0, 1, 1, 1, 1, 1, 1, 1, 0, |0, 1, 1, 1, 1, 1, 1, 1, 1, 1, |0, 1, 1, 1, 1, 1, 0, 1, 1, 1, |0, 1, 1, 1, 1, 1, 1, 1, 0, 1|];
StudentsProgramm = [2, 2, 2, 2, 2, 2, 2, 2, 2, 1, 2, 2, 2, 1, 2];
StudentsDegree = [1, 1, 1, 1, 1, 1, 1, 1, 1, 1, 1, 1, 1, 1, 1];
StudentsSupervisorId = [2, 4, 2, 4, 9, 5, 9, 4, 2, 2, 5, 10, 9, 7, 2];
StudentsCourseIds = [{1, 2}, {2, 3}, {1, 3}, {1, 3}, {1, 2}, {1, 3}, {1, 3}, {1, 3}, {1, 2}, {1, 2}, {1, 2}, {2, 3}, {2, 3}, {1, 2}, {1, 2}];
StudentsAvailability = [|1, 1, 1, 1, 1, 1, 0, 0, 1, 1, |1, 1, 1, 1, 1, 1, 0, 1, 1, 1, |0, 0, 0, 0, 1, 1, 0, 1, 1, 1, |0, 1, 1, 1, 1, 1, 1, 1, 1, 1, |1, 0, 0, 1, 1, 1, 0, 0, 1, 1, |1, 1, 1, 1, 1, 1, 1, 1, 1, 1, |0, 1, 1, 1, 1, 1, 1, 1, 1, 1, |1, 1, 1, 1, 1, 1, 1, 1, 1, 1, |1, 0, 0, 1, 1, 1, 1, 0, 0, 1, |1, 1, 1, 1, 1, 1, 1, 1, 1, 1, |0, 1, 1, 1, 1, 1, 1, 1, 1, 1, |1, 1, 1, 1, 1, 1, 1, 1, 1, 1, |0, 1, 1, 1, 1, 1, 1, 1, 1, 1, |0, 0, 0, 0, 1, 1, 1, 1, 1, 1, |0, 1, 1, 1, 1, 1, 1, 1, 1, 1|];
TheoryticalMinCard = [0, 0, 0, 0, 0, 0, 0, 0, 0, 0, 0, 0, 0, 0, 0];
CoursesInstructorIds = [{3, 4, 7}, {2, 5, 6, 8, 10}, {4, 8, 10}];
RolesDemands = [1, 2];
RolesContinuity = [];
ExamLen = [2, 2, 2, 2, 2, 2, 2, 2, 2, 2, 2, 2, 2, 2, 2];
LunchTsMinLen = 2;
LunchStarts = [5..6, 15..16];
SupervisorAvailable = 5;
OptimalLunchLenght = [2, 2];
OptimalStartTs = [1, 2];
OptimalFinishTs = [1, 9];
MinimizeRooms = 500;
RolesSoftContinuity = [|1, 2|0, 1|];
SameDegreeInRoom = 20;
Mergeability = 1;
